4,1,1,1,10,1,2,1,7,1,5,1,8,1;4,2,3,2,6,2,9,2,10,2,2,2,7,2,1,2,8,2,5,2,5,4;9,1,4,3,6,3,3,3,9,3,10,3,2,3,7,3,1,3,5,3;6,1,4,4,3,4,6,4,10,4,2,4,9,4,7,4,1,4,1,5,8,4;4,5,6,5,10,5,2,5,9,5,7,5,8,3,5,5,8,5;3,1,4,6,3,5,3,6,6,6,10,6,9,6,1,6,7,6,2,6,5,6,8,6;
